(declare-fun X_0 () Real)
(declare-fun X_1 () Real)
(declare-fun Y_0 () Real)
(declare-fun Y_1 () Real)
(declare-fun Y_2 () Real)

(assert (<= X_0 0.4))
(assert (>= X_0 0.3))
(assert (<= X_1 4.5))
(assert (>= X_1 4.1))

(assert (<= Y_0 15.2))
(assert (>= Y_0 15.1))
(assert (<= Y_1 16.1))
(assert (>= Y_1 16.0))
(assert (<= Y_2 16.1))
(assert (>= Y_2 15.9))

